122	0

0	3	3	4	2
9	4	15	16	17	18
3	5	5	6	7	9	10
3	5	5	6	7	9	10
4	4	12	14	15	17
3	7	8	11	12	13	14	15	17
2	7	8	11	12	13	14	15	17
6	5	16	18	20	21	22
4	4	12	14	15	17
4	4	12	14	15	17
7	7	19	20	21	22	23	25	28
5	5	16	18	20	21	22
8	4	19	23	25	28
8	2	24	25
5	4	19	23	25	28
9	7	26	27	29	31	32	34	39
4	7	19	20	21	22	23	25	28
2	4	19	23	25	28
9	4	36	37	43	44
8	7	26	27	29	31	32	34	39
8	7	26	27	29	31	32	34	39
5	8	24	26	27	29	31	32	34	39
4	8	24	26	27	29	31	32	34	39
9	5	40	41	45	46	50
6	7	26	27	29	31	32	34	39
1	5	30	33	35	37	43
8	2	40	41
8	5	30	33	35	37	43
8	2	40	41
3	2	36	44
5	1	38
4	2	36	44
9	6	48	49	51	52	53	59
4	2	36	44
5	5	40	41	45	46	50
1	1	38
5	4	40	41	45	46
1	5	40	41	45	46	50
9	3	42	47	56
6	6	57	58	63	65	66	67
1	3	42	47	56
9	11	68	69	70	71	72	73	74	75	77	78	80
10	8	54	55	57	58	60	61	62	64
9	4	57	58	60	61
4	2	49	52
4	2	49	52
1	6	48	49	51	52	53	59
8	11	68	69	70	71	72	73	74	75	77	78	80
1	8	54	55	57	58	60	61	62	64
8	6	57	58	63	65	66	67
2	8	54	55	57	58	60	61	62	64
2	4	57	58	60	61
4	6	57	58	63	65	66	67
6	11	68	69	70	71	72	73	74	75	77	78	80
5	4	63	65	66	67
10	8	69	70	71	73	74	75	77	78
10	2	76	79
5	8	69	70	71	73	74	75	77	78
7	4	63	65	66	67
4	4	63	65	66	67
9	5	71	75	76	78	79
9	7	70	71	73	74	75	78	79
5	5	71	75	76	78	79
9	7	70	71	73	74	75	78	79
4	7	70	71	73	74	75	78	79
1	11	68	69	70	71	72	73	74	75	77	78	80
1	11	68	69	70	71	72	73	74	75	77	78	80
9	6	81	82	84	90	91	93
5	2	76	79
4	1	76
6	11	83	85	86	87	88	89	90	91	93	97	98
8	6	81	82	84	90	91	93
10	5	85	87	88	97	98
8	8	83	85	86	87	88	89	97	98
6	11	83	85	86	87	88	89	90	91	93	97	98
2	6	81	82	84	90	91	93
10	8	83	85	86	87	88	89	97	98
7	8	83	85	86	87	88	89	97	98
2	6	81	82	84	90	91	93
8	6	81	82	84	90	91	93
6	1	85
2	8	83	85	86	87	88	89	97	98
9	2	99	100
5	3	85	88	97
2	7	92	94	95	96	104	107	108
6	7	92	94	95	96	104	107	108
10	2	101	102
4	5	94	95	96	104	108
7	5	94	95	96	104	108
9	4	99	100	103	110
7	7	92	94	95	96	104	107	108
9	3	109	111	112
8	5	94	95	96	104	108
1	4	99	100	103	110
3	1	100
3	1	100
8	4	101	102	105	106
7	2	99	100
3	2	101	102
1	4	101	102	105	106
1	6	109	111	112	113	114	115
4	3	109	111	112
7	3	109	111	112
6	6	109	111	112	113	114	115
10	3	117	118	120
3	4	109	111	112	115
7	6	109	111	112	113	114	115
6	6	109	111	112	113	114	115
2	5	116	117	118	119	120
10	5	116	117	118	119	120
4	4	116	117	118	120
4	4	116	117	118	120
5	5	116	117	118	119	120
9	1	117
7	3	117	118	120
6	1	121
3	1	121
5	1	121
9	1	122
9	1	122
4	1	122
0	0
